\ LP format - for model browsing. Use MPS format to capture full model detail.
Minimize
  0.5 L + 0.5 omega
Subject To
 epigraph[0]: 2364.163013295733 x[0,1] + 1744.493606848849 x[0,2] - L <= 0
 epigraph[1]: 2713.504236404486 x[1,0] + 1231.827487106873 x[1,2] - L <= 0
 epigraph[2]: 1997.454209811932 x[2,0] + 1228.865227566858 x[2,1] - L <= 0
 p: y[0] + y[1] + y[2] = 1
 x<y[0,0]: x[0,0] - y[0] <= 0
 x<y[0,1]: x[0,1] - y[1] <= 0
 x<y[0,2]: x[0,2] - y[2] <= 0
 x<y[1,0]: x[1,0] - y[0] <= 0
 x<y[1,1]: x[1,1] - y[1] <= 0
 x<y[1,2]: x[1,2] - y[2] <= 0
 x<y[2,0]: x[2,0] - y[0] <= 0
 x<y[2,1]: x[2,1] - y[1] <= 0
 x<y[2,2]: x[2,2] - y[2] <= 0
 sumx[0]: x[0,0] + x[0,1] + x[0,2] = 1
 sumx[1]: x[1,0] + x[1,1] + x[1,2] = 1
 sumx[2]: x[2,0] + x[2,1] + x[2,2] = 1
 R16: - 450.7059033054043 y[2] + omega >= 953.4541277437199
Bounds
Binaries
 x[0,0] x[0,1] x[0,2] x[1,0] x[1,1] x[1,2] x[2,0] x[2,1] x[2,2] y[0] y[1]
 y[2]
End
